Problem:    
Rows:       256
Columns:    89 (72 integer, 72 binary)
Non-zeros:  960
Status:     INTEGER OPTIMAL
Objective:  value = 71.242013 (MINimum)

   No.   Row name        Activity     Lower bound   Upper bound
------ ------------    ------------- ------------- -------------
     1 r.5                   1071.24             0               
     2 r.6                  -965.934      -985.417               
     3 r.7                    71.242             0               
     4 r.8                   34.0661      -987.865               
     5 r.9                    71.242             0               
     6 r.10                 -979.971      -984.785               
     7 r.11                  1071.24             0               
     8 r.12                 -950.423      -987.512               
     9 r.13                   71.242             0               
    10 r.14                   49.577      -973.293               
    11 r.15                  1071.24             0               
    12 r.16                 -962.911       -980.34               
    13 r.17                   71.242             0               
    14 r.18                 -981.487      -986.301               
    15 r.19                  1071.24             0               
    16 r.20                 -984.932      -989.746               
    17 r.21                  1071.24             0               
    18 r.22                 -981.955      -986.769               
    19 r.23                   71.242             0               
    20 r.24                  35.3228      -989.782               
    21 r.25                  1071.24             0               
    22 r.26                 -999.503      -999.503               
    23 r.27                   71.242             0               
    24 r.28                 -995.056      -995.056               
    25 r.29                  1071.24             0               
    26 r.30                 -928.758      -962.824               
    27 r.31                   71.242             0               
    28 r.32                   71.242      -978.588               
    29 r.33                   71.242             0               
    30 r.34                   71.242      -962.853               
    31 r.35                  1071.24             0               
    32 r.36                 -928.758      -978.335               
    33 r.37                        1             1             = 
    34 r.38                        1             1             = 
    35 r.39                        1             1             = 
    36 r.40                        1             1             = 
    37 r.41                        1             1             = 
    38 r.42                        1             1             = 
    39 r.43                        1             1             = 
    40 r.44                        1             1             = 
    41 r.45                     1001             2               
    42 r.46                    -1001         -1001               
    43 r.47                  985.963      -984.785               
    44 r.48                     1001             2               
    45 r.49                    -1001         -1001               
    46 r.50                  2015.51      -987.512               
    47 r.51                     1001             2               
    48 r.52                    -1001         -1001               
    49 r.53                  2015.51      -973.293               
    50 r.54                     1001             2               
    51 r.55                    -1001         -1001               
    52 r.56                  2003.02       -980.34               
    53 r.57                     1001             2               
    54 r.58                    -1001         -1001               
    55 r.59                  984.446      -986.301               
    56 r.60                     1001             2               
    57 r.61                    -1001         -1001               
    58 r.62                     1981      -989.746               
    59 r.63                        2             2               
    60 r.64                       -2         -1001               
    61 r.65                 -16.0214      -986.769               
    62 r.66                     1000             2               
    63 r.67                    -1000         -1001               
    64 r.68                  2001.26      -989.782               
    65 r.69                 -970.748      -985.417               
    66 r.70                  29.2522      -987.865               
    67 r.71                  32.8919      -985.417               
    68 r.72                  1032.89      -987.865               
    69 r.73                 -962.824      -962.824               
    70 r.74                  37.1759      -978.588               
    71 r.75                 -962.824      -962.824               
    72 r.76                  37.1759      -978.588               
    73 r.77                     1001             2               
    74 r.78                    -1001         -1001               
    75 r.79                  2037.18      -962.853               
    76 r.80                     1001             2               
    77 r.81                    -1001         -1001               
    78 r.82                  2037.18      -978.335               
    79 r.83                     1001             2               
    80 r.84                    -1001         -1001               
    81 r.85                  3014.04       14.5826               
    82 r.86                     1001             2               
    83 r.87                    -1001         -1001               
    84 r.88                  1984.49       12.1354               
    85 r.89                     1000             2               
    86 r.90                    -1000         -1001               
    87 r.91                  3029.55      -973.293               
    88 r.92                        2             2               
    89 r.93                       -2         -1001               
    90 r.94                 -12.4885       -980.34               
    91 r.95                     1000             2               
    92 r.96                    -1000         -1001               
    93 r.97                  1998.48      -986.301               
    94 r.98                        2             2               
    95 r.99                       -2         -1001               
    96 r.100                -34.5088      -989.746               
    97 r.101                    1001             2               
    98 r.102                   -1001         -1001               
    99 r.103                 2998.02      -986.769               
   100 r.104                    1001             2               
   101 r.105                   -1001         -1001               
   102 r.106                 1985.75      -989.782               
   103 r.107                -984.785      -984.785               
   104 r.108                -955.237      -987.512               
   105 r.109                 18.8549      -984.785               
   106 r.110                 48.4027      -987.512               
   107 r.111                    1001             2               
   108 r.112                   -1001         -1001               
   109 r.113                 3051.21      -962.824               
   110 r.114                    1001             2               
   111 r.115                   -1001         -1001               
   112 r.116                 2021.66      -978.588               
   113 r.117                 1051.21      -962.853               
   114 r.118                 51.2128      -978.335               
   115 r.119                  21.665      -962.853               
   116 r.120                -978.335      -978.335               
   117 r.121                    1001             2               
   118 r.122                   -1001         -1001               
   119 r.123                 1984.49       14.5826               
   120 r.124                    1001             2               
   121 r.125                   -1001         -1001               
   122 r.126                 1996.98       12.1354               
   123 r.127                    1000             2               
   124 r.128                   -1000         -1001               
   125 r.129                 970.452       15.2153               
   126 r.130                       2             2               
   127 r.131                      -2         -1001               
   128 r.132                 12.4885       12.4885               
   129 r.133                 1031.06      -973.293               
   130 r.134                 18.5759       -980.34               
   131 r.135                 34.5088      -973.293               
   132 r.136                 -977.98       -980.34               
   133 r.137                    1001             2               
   134 r.138                   -1001         -1001               
   135 r.139                 1968.47      -986.769               
   136 r.140                    1001             2               
   137 r.141                   -1001         -1001               
   138 r.142                 1998.23      -989.782               
   139 r.143                 44.7631      -973.293               
   140 r.144                -967.725       -980.34               
   141 r.145                  1048.4      -973.293               
   142 r.146                 35.9142       -980.34               
   143 r.147                    1001             2               
   144 r.148                   -1001         -1001               
   145 r.149                 2021.66      -962.824               
   146 r.150                    1001             2               
   147 r.151                   -1001         -1001               
   148 r.152                 2034.15      -978.588               
   149 r.153                  21.665      -962.853               
   150 r.154                -978.335      -978.335               
   151 r.155                 34.1535      -962.853               
   152 r.156                -965.847      -978.335               
   153 r.157                    1001             2               
   154 r.158                   -1001         -1001               
   155 r.159                 3015.55       14.5826               
   156 r.160                    1001             2               
   157 r.161                   -1001         -1001               
   158 r.162                    2019       12.1354               
   159 r.163                    1000             2               
   160 r.164                   -1000         -1001               
   161 r.165                 2001.52       15.2153               
   162 r.166                       2             2               
   163 r.167                      -2         -1001               
   164 r.168                 34.5088       12.4885               
   165 r.169                    1001             2               
   166 r.170                   -1001         -1001               
   167 r.171                 2999.53      -986.769               
   168 r.172                    1001             2               
   169 r.173                   -1001         -1001               
   170 r.174                 2020.25      -989.782               
   171 r.175                -986.301      -986.301               
   172 r.176                -989.746      -989.746               
   173 r.177                 17.3383      -986.301               
   174 r.178                 13.8939      -989.746               
   175 r.179                    1001             2               
   176 r.180                   -1001         -1001               
   177 r.181                 3052.73      -962.824               
   178 r.182                    1001             2               
   179 r.183                   -1001         -1001               
   180 r.184                 2056.17      -978.588               
   181 r.185                 1052.73      -962.853               
   182 r.186                 52.7294      -978.335               
   183 r.187                 56.1738      -962.853               
   184 r.188                -943.826      -978.335               
   185 r.189                       2             2               
   186 r.190                      -2         -1001               
   187 r.191                 14.5826       14.5826               
   188 r.192                    1000             2               
   189 r.193                   -1000         -1001               
   190 r.194                    2000       12.1354               
   191 r.195                    1001             2               
   192 r.196                   -1001         -1001               
   193 r.197                 1000.55       15.2153               
   194 r.198                    1001             2               
   195 r.199                   -1001         -1001               
   196 r.200                 2015.51       12.4885               
   197 r.201                    1001             2               
   198 r.202                   -1001         -1001               
   199 r.203                 2030.09       26.7067               
   200 r.204                    1001             2               
   201 r.205                   -1001         -1001               
   202 r.206                 2003.02       19.6601               
   203 r.207                    1001             2               
   204 r.208                   -1001         -1001               
   205 r.209                 999.029       13.6987               
   206 r.210                    1001             2               
   207 r.211                   -1001         -1001               
   208 r.212                    1981       10.2543               
   209 r.213                -986.769      -986.769               
   210 r.214                 30.5089      -989.782               
   211 r.215                 16.8705      -986.769               
   212 r.216                 1034.15      -989.782               
   213 r.217                -948.242      -962.824               
   214 r.218                 51.7584      -978.588               
   215 r.219                -962.824      -962.824               
   216 r.220                 37.1759      -978.588               
   217 r.221                 51.7584      -962.853               
   218 r.222                -948.242      -978.335               
   219 r.223                 37.1759      -962.853               
   220 r.224                -962.824      -978.335               
   221 r.225                    1001             2               
   222 r.226                   -1001         -1001               
   223 r.227                 948.787       15.2153               
   224 r.228                    1001             2               
   225 r.229                   -1001         -1001               
   226 r.230                 1978.34       12.4885               
   227 r.231                    1001             2               
   228 r.232                   -1001         -1001               
   229 r.233                 1978.34       26.7067               
   230 r.234                    1001             2               
   231 r.235                   -1001         -1001               
   232 r.236                 1965.85       19.6601               
   233 r.237                    1001             2               
   234 r.238                   -1001         -1001               
   235 r.239                 947.271       13.6987               
   236 r.240                    1001             2               
   237 r.241                   -1001         -1001               
   238 r.242                 1943.83       10.2543               
   239 r.243                    1001             2               
   240 r.244                   -1001         -1001               
   241 r.245                    2000      -962.853               
   242 r.246                    1001             2               
   243 r.247                   -1001         -1001               
   244 r.248                    2000      -978.335               
   245 r.249                    1001             2               
   246 r.250                   -1001         -1001               
   247 r.251                 1962.82       14.5826               
   248 r.252                    1001             2               
   249 r.253                   -1001         -1001               
   250 r.254                 1962.82       12.1354               
   251 r.255                    1001             2               
   252 r.256                   -1001         -1001               
   253 r.257                    2000       37.1759               
   254 r.258                    1001             2               
   255 r.259                   -1001         -1001               
   256 r.260                    2000       21.4122               

   No. Column name       Activity     Lower bound   Upper bound
------ ------------    ------------- ------------- -------------
     1 tt                     71.242             0               
     2 s_1_1        *              1             0             1 
     3 t_1_1                 37.1759             0               
     4 s_1_7        *              1             0             1 
     5 s_2_1        *              0             0             1 
     6 t_2_1                 37.1759             0               
     7 s_2_7        *              0             0             1 
     8 s_1_2        *              0             0             1 
     9 t_1_2                 1051.21             0               
    10 s_1_8        *              0             0             1 
    11 s_2_2        *              1             0             1 
    12 t_2_2                  21.665             0               
    13 s_2_8        *              1             0             1 
    14 s_1_3        *              0             0             1 
    15 t_1_3                  21.665             0               
    16 s_2_3        *              1             0             1 
    17 t_2_3                 34.1535             0               
    18 s_1_4        *              0             0             1 
    19 t_1_4                 1052.73             0               
    20 s_2_4        *              1             0             1 
    21 t_2_4                 56.1738             0               
    22 s_1_5        *              1             0             1 
    23 t_1_5                 51.7584             0               
    24 s_2_5        *              0             0             1 
    25 t_2_5                 37.1759             0               
    26 s_1_6        *              1             0             1 
    27 t_1_6                 66.4281             0               
    28 s_2_6        *              0             0             1 
    29 t_2_6                 1070.07             0               
    30 t_1_7                       0             0               
    31 t_2_7                       0             0               
    32 t_1_8                       0             0               
    33 t_2_8                       0             0               
    34 r_1_1_2      *              1             0             1 
    35 u_1_1_2      *              0             0             1 
    36 r_2_1_2      *              1             0             1 
    37 u_2_1_2      *              0             0             1 
    38 r_1_1_3      *              1             0             1 
    39 u_1_1_3      *              0             0             1 
    40 r_2_1_3      *              1             0             1 
    41 u_2_1_3      *              0             0             1 
    42 r_1_1_4      *              1             0             1 
    43 u_1_1_4      *              0             0             1 
    44 r_2_1_4      *              1             0             1 
    45 u_2_1_4      *              0             0             1 
    46 r_1_1_5      *              0             0             1 
    47 u_1_1_5      *              0             0             1 
    48 r_2_1_5      *              1             0             1 
    49 u_2_1_5      *              0             0             1 
    50 r_1_1_8      *              1             0             1 
    51 u_1_1_8      *              0             0             1 
    52 r_2_1_8      *              1             0             1 
    53 u_2_1_8      *              0             0             1 
    54 r_1_2_3      *              1             0             1 
    55 u_1_2_3      *              0             0             1 
    56 r_2_2_3      *              0             0             1 
    57 u_2_2_3      *              0             0             1 
    58 r_1_2_4      *              1             0             1 
    59 u_1_2_4      *              0             0             1 
    60 r_2_2_4      *              0             0             1 
    61 u_2_2_4      *              0             0             1 
    62 r_1_2_5      *              1             0             1 
    63 u_1_2_5      *              0             0             1 
    64 r_2_2_5      *              1             0             1 
    65 u_2_2_5      *              0             0             1 
    66 r_1_2_7      *              1             0             1 
    67 u_1_2_7      *              0             0             1 
    68 r_2_2_7      *              1             0             1 
    69 u_2_2_7      *              0             0             1 
    70 r_1_3_5      *              1             0             1 
    71 u_1_3_5      *              0             0             1 
    72 r_2_3_5      *              1             0             1 
    73 u_2_3_5      *              0             0             1 
    74 r_1_3_7      *              1             0             1 
    75 u_1_3_7      *              0             0             1 
    76 r_2_3_7      *              1             0             1 
    77 u_2_3_7      *              0             0             1 
    78 r_1_4_5      *              1             0             1 
    79 u_1_4_5      *              0             0             1 
    80 r_2_4_5      *              1             0             1 
    81 u_2_4_5      *              0             0             1 
    82 r_1_4_7      *              1             0             1 
    83 u_1_4_7      *              0             0             1 
    84 r_2_4_7      *              1             0             1 
    85 u_2_4_7      *              0             0             1 
    86 r_1_7_8      *              1             0             1 
    87 u_1_7_8      *              0             0             1 
    88 r_2_7_8      *              1             0             1 
    89 u_2_7_8      *              0             0             1 

Integer feasibility conditions:

KKT.PE: max.abs.err = 4.55e-13 on row 99
        max.rel.err = 1.10e-16 on row 132
        High quality

KKT.PB: max.abs.err = 2.27e-13 on row 24
        max.rel.err = 2.63e-16 on row 128
        High quality

End of output
